# Data section
data;

set ParkingLots := p1 p2 p3 p4 p5;
set WaitingCars := Car1 Car2 Car3 Car4 Car5;

param :
        maxCarCapacity :=
    p1     25
    p2     25
    p3     25
    p4     25
    p5     25;

param :
        initNumOfCar :=
    p1     13
    p2     12
    p3     12
    p4     11
    p5     12;